38 12
8 389
4 738
3 90
11 481
5 918
10 239
11 560
5 826
1 312
9 531
11 678
10 330
10 643
2 711
7 469
9 225
6 759
10 295
10 901
8 68
10 203
8 159
9 274
4 747
5 956
2 599
5 353
10 890
11 267
6 463
10 974
3 710
2 140
5 810
3 310
8 515
10 150
10 359
